25
73.88 31.36
73.31 33.66
71.74 35.43
69.53 36.27
67.17 35.99
65.22 34.64
64.12 32.54
64.12 30.18
65.22 28.08
67.17 26.73
69.53 26.45
71.74 27.29
73.31 29.06
6.36 0.61
3.95 2.37
1.54 4.13
68.07 19.08
67.54 21.21
66.09 22.86
64.03 23.64
61.85 23.37
60.04 22.12
59.02 20.18
59.02 17.98
60.04 16.04
